
Gurobi 11.0.1 (win64) logging started Mon May 13 15:45:56 2024

Set parameter LogFile to value "output/solver_log41.txt"
Gurobi Optimizer version 11.0.1 build v11.0.1rc0 (win64 - Windows 11.0 (22631.2))

CPU model: 11th Gen Intel(R) Core(TM) i7-1165G7 @ 2.80GHz, instruction set [SSE2|AVX|AVX2|AVX512]
Thread count: 4 physical cores, 8 logical processors, using up to 8 threads

Optimize a model with 2557 rows, 588 columns and 47391 nonzeros
Model fingerprint: 0x9d52e80d
Variable types: 248 continuous, 340 integer (340 binary)
Coefficient statistics:
  Matrix range     [4e-01, 1e+05]
  Objective range  [1e+00, 1e+02]
  Bounds range     [1e+00, 1e+00]
  RHS range        [1e-02, 1e+05]

User MIP start produced solution with objective 78115.8 (0.01s)
User MIP start produced solution with objective 78115.8 (0.01s)
Loaded user MIP start with objective 78115.8

Presolve removed 221 rows and 194 columns
Presolve time: 0.06s
Presolved: 2336 rows, 394 columns, 45145 nonzeros
Variable types: 228 continuous, 166 integer (163 binary)

Root relaxation: cutoff, 19 iterations, 0.01 seconds (0.01 work units)

    Nodes    |    Current Node    |     Objective Bounds      |     Work
 Expl Unexpl |  Obj  Depth IntInf | Incumbent    BestBd   Gap | It/Node Time

     0     0     cutoff    0      78115.7529 78115.7529  0.00%     -    0s

Explored 1 nodes (19 simplex iterations) in 0.15 seconds (0.22 work units)
Thread count was 8 (of 8 available processors)

Solution count 2: 78115.8 78115.8 

Optimal solution found (tolerance 1.00e-04)
Best objective 7.811575294194e+04, best bound 7.811575294194e+04, gap 0.0000%
